Set parameter TokenServer to value "opt-license.discovery.wisc.edu"
Set parameter PreCrush to value 1
Set parameter LazyConstraints to value 1
Set parameter TimeLimit to value 1800
Gurobi Optimizer version 9.5.1 build v9.5.1rc2 (linux64)
Thread count: 40 physical cores, 80 logical processors, using up to 32 threads
Optimize a model with 5041 rows, 4900 columns and 19530 nonzeros
Model fingerprint: 0xa35ccff5
Variable types: 0 continuous, 4900 integer (4900 binary)
Coefficient statistics:
  Matrix range     [1e+00, 1e+03]
  Objective range  [1e+00, 1e+01]
  Bounds range     [1e+00, 1e+00]
  RHS range        [1e+00, 8e+00]
Presolve removed 70 rows and 0 columns
Presolve time: 0.08s
Presolved: 4971 rows, 4900 columns, 19530 nonzeros
Variable types: 0 continuous, 4900 integer (4900 binary)

Root relaxation: objective 7.892552e+01, 1166 iterations, 0.09 seconds (0.06 work units)

    Nodes    |    Current Node    |     Objective Bounds      |     Work
 Expl Unexpl |  Obj  Depth IntInf | Incumbent    BestBd   Gap | It/Node Time

     0     0   78.92552    0  192          -   78.92552      -     -    1s
     0     0   79.53526    0  240          -   79.53526      -     -    2s
     0     0   79.63900    0  285          -   79.63900      -     -    3s
     0     0   79.64585    0  282          -   79.64585      -     -    4s
     0     0   79.65437    0  296          -   79.65437      -     -    5s
     0     0   79.65437    0  296          -   79.65437      -     -    5s
     0     2   79.73362    0  296          -   79.73362      -     -    8s
     3     8   80.11852    2  237          -   79.85094      -   141   10s
    15    32   80.21500    4  230          -   80.05286      -   125   16s
    31    64   80.33406    5  257          -   80.13635      -   144   22s
    63    96   80.37927    6  240          -   80.25954      -   133   34s
    79    96   80.50472    6  188          -   80.25956      -   127   40s
    95   128   80.80803    6  176          -   80.25956      -   124   45s
   127   160   80.95103    7  232          -   80.26504      -   124   55s
   159   192   81.24294    7  132          -   80.26504      -   122   65s
   191   242   81.38245    8  137          -   80.26504      -   123   73s
   211   242   81.13181    8   64          -   80.26504      -   124   78s
   241   293   81.66650    9   95          -   80.26504      -   124   85s
   292   347   82.40902   10   12          -   80.26504      -   120   97s
H  304   347                      81.5936013   80.26504  1.63%   119  100s
   346   321     cutoff   11        81.59360   80.26504  1.63%   115  109s
   349   321   81.14548   11  100   81.59360   80.26504  1.63%   114  110s
H  389   321                      81.3575334   80.26504  1.34%   107  114s
   421   294     cutoff   11        81.35753   80.34776  1.24%   101  116s
   508   305     cutoff    7        81.35753   80.40551  1.17%  94.7  128s
   557   315   80.47137    8   92   81.35753   80.40551  1.17%  92.3  138s
   660   304   80.53956   10   34   81.35753   80.40551  1.17%  85.1  156s
   683   304     cutoff    8        81.35753   80.40551  1.17%  84.0  161s
   734   279   80.95740   10   56   81.35753   80.40551  1.17%  82.2  166s
   773   279   80.77527    8  160   81.35753   80.40551  1.17%  80.7  173s
   849   253   80.55342    9   79   81.35753   80.40551  1.17%  77.6  182s
   969   215   80.84065   10  168   81.35753   80.40551  1.17%  74.0  198s
   980   215 infeasible   11        81.35753   80.40551  1.17%  73.9  201s
  1091   161   81.14671    8   38   81.35753   80.40551  1.17%  71.4  213s
  1207    86     cutoff    9        81.35753   80.46077  1.10%  68.3  225s
  1352    35     cutoff    9        81.35753   80.60128  0.93%  64.2  237s
  1444    12   80.77574    9  202   81.35753   80.63220  0.89%  61.8  245s
  1494    10   81.13491   11  242   81.35753   80.90737  0.55%  61.1  251s
  1506     2   81.22316   12  238   81.35753   80.95424  0.50%  61.1  255s

Cutting planes:
  User: 75
  Lift-and-project: 1
  MIR: 13
  StrongCG: 7
  GUB cover: 5
  Lazy constraints: 336

Explored 1525 nodes (94398 simplex iterations) in 256.59 seconds (2.68 work units)
Thread count was 32 (of 80 available processors)

Solution count 2: 81.3575 81.5936 

Optimal solution found (tolerance 1.00e-04)
Best objective 8.135753336195e+01, best bound 8.135753336195e+01, gap 0.0000%

User-callback calls 4289, time in user-callback 251.47 sec
cuts :  82
